p cnf 63 1265
c one port of a gate receives one connection
-1 -2 0
-1 -3 0
-1 -4 0
-5 -1 0
-3 -2 0
-5 -3 0
-5 -4 0
-6 -1 0
-4 -2 0
-6 -5 0
-4 -3 0
-6 -4 0
-7 -8 0
-7 -9 0
-7 -10 0
-7 -11 0
-12 -7 0
-9 -8 0
-12 -9 0
-12 -10 0
-12 -11 0
-13 -7 0
-10 -8 0
-13 -12 0
-10 -9 0
-13 -10 0
-13 -11 0
-14 -7 0
-11 -8 0
-14 -12 0
-11 -9 0
-14 -13 0
-11 -10 0
-14 -11 0
1 5 6 0
2 3 4 0
7 12 13 14 0
8 9 10 11 0
c one output of the circuit receives one connection
-15 -16 0
-17 -16 0
-17 -15 0
-18 -16 0
-18 -15 0
-18 -17 0
-19 -16 0
-19 -15 0
-19 -17 0
-19 -18 0
16 15 17 18 19 0
c input gate has input value
-20 0
21 0
-22 0
23 0
-24 0
25 0
-26 0
27 0
-28 0
-29 0
30 0
31 0
-32 0
-33 0
34 0
35 0
-36 0
-37 0
-38 0
-39 0
40 0
41 0
42 0
43 0
c internal gates produce calculated value
-5 -2 44 45 28 20 -46 0
-5 -2 44 45 28 -20 -46 0
-5 -2 44 45 -28 20 -46 0
-5 -2 44 45 -28 -20 46 0
-5 -2 44 -45 28 20 -46 0
-5 -2 44 -45 28 -20 46 0
-5 -2 44 -45 -28 20 46 0
-5 -2 44 -45 -28 -20 46 0
-5 -2 -44 45 28 20 46 0
-5 -2 -44 45 28 -20 -46 0
-5 -2 -44 45 -28 20 46 0
-5 -2 -44 45 -28 -20 -46 0
-5 -2 -44 -45 28 20 46 0
-5 -2 -44 -45 28 -20 -46 0
-5 -2 -44 -45 -28 20 46 0
-5 -2 -44 -45 -28 -20 -46 0
-5 -2 44 45 29 21 -47 0
-5 -2 44 45 29 -21 -47 0
-5 -2 44 45 -29 21 -47 0
-5 -2 44 45 -29 -21 47 0
-5 -2 44 -45 29 21 -47 0
-5 -2 44 -45 29 -21 47 0
-5 -2 44 -45 -29 21 47 0
-5 -2 44 -45 -29 -21 47 0
-5 -2 -44 45 29 21 47 0
-5 -2 -44 45 29 -21 -47 0
-5 -2 -44 45 -29 21 47 0
-5 -2 -44 45 -29 -21 -47 0
-5 -2 -44 -45 29 21 47 0
-5 -2 -44 -45 29 -21 -47 0
-5 -2 -44 -45 -29 21 47 0
-5 -2 -44 -45 -29 -21 -47 0
-5 -2 44 45 30 22 -48 0
-5 -2 44 45 30 -22 -48 0
-5 -2 44 45 -30 22 -48 0
-5 -2 44 45 -30 -22 48 0
-5 -2 44 -45 30 22 -48 0
-5 -2 44 -45 30 -22 48 0
-5 -2 44 -45 -30 22 48 0
-5 -2 44 -45 -30 -22 48 0
-5 -2 -44 45 30 22 48 0
-5 -2 -44 45 30 -22 -48 0
-5 -2 -44 45 -30 22 48 0
-5 -2 -44 45 -30 -22 -48 0
-5 -2 -44 -45 30 22 48 0
-5 -2 -44 -45 30 -22 -48 0
-5 -2 -44 -45 -30 22 48 0
-5 -2 -44 -45 -30 -22 -48 0
-5 -2 44 45 31 23 -49 0
-5 -2 44 45 31 -23 -49 0
-5 -2 44 45 -31 23 -49 0
-5 -2 44 45 -31 -23 49 0
-5 -2 44 -45 31 23 -49 0
-5 -2 44 -45 31 -23 49 0
-5 -2 44 -45 -31 23 49 0
-5 -2 44 -45 -31 -23 49 0
-5 -2 -44 45 31 23 49 0
-5 -2 -44 45 31 -23 -49 0
-5 -2 -44 45 -31 23 49 0
-5 -2 -44 45 -31 -23 -49 0
-5 -2 -44 -45 31 23 49 0
-5 -2 -44 -45 31 -23 -49 0
-5 -2 -44 -45 -31 23 49 0
-5 -2 -44 -45 -31 -23 -49 0
-5 -2 44 45 32 24 -50 0
-5 -2 44 45 32 -24 -50 0
-5 -2 44 45 -32 24 -50 0
-5 -2 44 45 -32 -24 50 0
-5 -2 44 -45 32 24 -50 0
-5 -2 44 -45 32 -24 50 0
-5 -2 44 -45 -32 24 50 0
-5 -2 44 -45 -32 -24 50 0
-5 -2 -44 45 32 24 50 0
-5 -2 -44 45 32 -24 -50 0
-5 -2 -44 45 -32 24 50 0
-5 -2 -44 45 -32 -24 -50 0
-5 -2 -44 -45 32 24 50 0
-5 -2 -44 -45 32 -24 -50 0
-5 -2 -44 -45 -32 24 50 0
-5 -2 -44 -45 -32 -24 -50 0
-5 -2 44 45 33 25 -51 0
-5 -2 44 45 33 -25 -51 0
-5 -2 44 45 -33 25 -51 0
-5 -2 44 45 -33 -25 51 0
-5 -2 44 -45 33 25 -51 0
-5 -2 44 -45 33 -25 51 0
-5 -2 44 -45 -33 25 51 0
-5 -2 44 -45 -33 -25 51 0
-5 -2 -44 45 33 25 51 0
-5 -2 -44 45 33 -25 -51 0
-5 -2 -44 45 -33 25 51 0
-5 -2 -44 45 -33 -25 -51 0
-5 -2 -44 -45 33 25 51 0
-5 -2 -44 -45 33 -25 -51 0
-5 -2 -44 -45 -33 25 51 0
-5 -2 -44 -45 -33 -25 -51 0
-5 -2 44 45 34 26 -52 0
-5 -2 44 45 34 -26 -52 0
-5 -2 44 45 -34 26 -52 0
-5 -2 44 45 -34 -26 52 0
-5 -2 44 -45 34 26 -52 0
-5 -2 44 -45 34 -26 52 0
-5 -2 44 -45 -34 26 52 0
-5 -2 44 -45 -34 -26 52 0
-5 -2 -44 45 34 26 52 0
-5 -2 -44 45 34 -26 -52 0
-5 -2 -44 45 -34 26 52 0
-5 -2 -44 45 -34 -26 -52 0
-5 -2 -44 -45 34 26 52 0
-5 -2 -44 -45 34 -26 -52 0
-5 -2 -44 -45 -34 26 52 0
-5 -2 -44 -45 -34 -26 -52 0
-5 -2 44 45 35 27 -53 0
-5 -2 44 45 35 -27 -53 0
-5 -2 44 45 -35 27 -53 0
-5 -2 44 45 -35 -27 53 0
-5 -2 44 -45 35 27 -53 0
-5 -2 44 -45 35 -27 53 0
-5 -2 44 -45 -35 27 53 0
-5 -2 44 -45 -35 -27 53 0
-5 -2 -44 45 35 27 53 0
-5 -2 -44 45 35 -27 -53 0
-5 -2 -44 45 -35 27 53 0
-5 -2 -44 45 -35 -27 -53 0
-5 -2 -44 -45 35 27 53 0
-5 -2 -44 -45 35 -27 -53 0
-5 -2 -44 -45 -35 27 53 0
-5 -2 -44 -45 -35 -27 -53 0
-6 -2 44 45 36 20 -46 0
-6 -2 44 45 36 -20 -46 0
-6 -2 44 45 -36 20 -46 0
-6 -2 44 45 -36 -20 46 0
-6 -2 44 -45 36 20 -46 0
-6 -2 44 -45 36 -20 46 0
-6 -2 44 -45 -36 20 46 0
-6 -2 44 -45 -36 -20 46 0
-6 -2 -44 45 36 20 46 0
-6 -2 -44 45 36 -20 -46 0
-6 -2 -44 45 -36 20 46 0
-6 -2 -44 45 -36 -20 -46 0
-6 -2 -44 -45 36 20 46 0
-6 -2 -44 -45 36 -20 -46 0
-6 -2 -44 -45 -36 20 46 0
-6 -2 -44 -45 -36 -20 -46 0
-6 -2 44 45 37 21 -47 0
-6 -2 44 45 37 -21 -47 0
-6 -2 44 45 -37 21 -47 0
-6 -2 44 45 -37 -21 47 0
-6 -2 44 -45 37 21 -47 0
-6 -2 44 -45 37 -21 47 0
-6 -2 44 -45 -37 21 47 0
-6 -2 44 -45 -37 -21 47 0
-6 -2 -44 45 37 21 47 0
-6 -2 -44 45 37 -21 -47 0
-6 -2 -44 45 -37 21 47 0
-6 -2 -44 45 -37 -21 -47 0
-6 -2 -44 -45 37 21 47 0
-6 -2 -44 -45 37 -21 -47 0
-6 -2 -44 -45 -37 21 47 0
-6 -2 -44 -45 -37 -21 -47 0
-6 -2 44 45 38 22 -48 0
-6 -2 44 45 38 -22 -48 0
-6 -2 44 45 -38 22 -48 0
-6 -2 44 45 -38 -22 48 0
-6 -2 44 -45 38 22 -48 0
-6 -2 44 -45 38 -22 48 0
-6 -2 44 -45 -38 22 48 0
-6 -2 44 -45 -38 -22 48 0
-6 -2 -44 45 38 22 48 0
-6 -2 -44 45 38 -22 -48 0
-6 -2 -44 45 -38 22 48 0
-6 -2 -44 45 -38 -22 -48 0
-6 -2 -44 -45 38 22 48 0
-6 -2 -44 -45 38 -22 -48 0
-6 -2 -44 -45 -38 22 48 0
-6 -2 -44 -45 -38 -22 -48 0
-6 -2 44 45 39 23 -49 0
-6 -2 44 45 39 -23 -49 0
-6 -2 44 45 -39 23 -49 0
-6 -2 44 45 -39 -23 49 0
-6 -2 44 -45 39 23 -49 0
-6 -2 44 -45 39 -23 49 0
-6 -2 44 -45 -39 23 49 0
-6 -2 44 -45 -39 -23 49 0
-6 -2 -44 45 39 23 49 0
-6 -2 -44 45 39 -23 -49 0
-6 -2 -44 45 -39 23 49 0
-6 -2 -44 45 -39 -23 -49 0
-6 -2 -44 -45 39 23 49 0
-6 -2 -44 -45 39 -23 -49 0
-6 -2 -44 -45 -39 23 49 0
-6 -2 -44 -45 -39 -23 -49 0
-6 -2 44 45 40 24 -50 0
-6 -2 44 45 40 -24 -50 0
-6 -2 44 45 -40 24 -50 0
-6 -2 44 45 -40 -24 50 0
-6 -2 44 -45 40 24 -50 0
-6 -2 44 -45 40 -24 50 0
-6 -2 44 -45 -40 24 50 0
-6 -2 44 -45 -40 -24 50 0
-6 -2 -44 45 40 24 50 0
-6 -2 -44 45 40 -24 -50 0
-6 -2 -44 45 -40 24 50 0
-6 -2 -44 45 -40 -24 -50 0
-6 -2 -44 -45 40 24 50 0
-6 -2 -44 -45 40 -24 -50 0
-6 -2 -44 -45 -40 24 50 0
-6 -2 -44 -45 -40 -24 -50 0
-6 -2 44 45 41 25 -51 0
-6 -2 44 45 41 -25 -51 0
-6 -2 44 45 -41 25 -51 0
-6 -2 44 45 -41 -25 51 0
-6 -2 44 -45 41 25 -51 0
-6 -2 44 -45 41 -25 51 0
-6 -2 44 -45 -41 25 51 0
-6 -2 44 -45 -41 -25 51 0
-6 -2 -44 45 41 25 51 0
-6 -2 -44 45 41 -25 -51 0
-6 -2 -44 45 -41 25 51 0
-6 -2 -44 45 -41 -25 -51 0
-6 -2 -44 -45 41 25 51 0
-6 -2 -44 -45 41 -25 -51 0
-6 -2 -44 -45 -41 25 51 0
-6 -2 -44 -45 -41 -25 -51 0
-6 -2 44 45 42 26 -52 0
-6 -2 44 45 42 -26 -52 0
-6 -2 44 45 -42 26 -52 0
-6 -2 44 45 -42 -26 52 0
-6 -2 44 -45 42 26 -52 0
-6 -2 44 -45 42 -26 52 0
-6 -2 44 -45 -42 26 52 0
-6 -2 44 -45 -42 -26 52 0
-6 -2 -44 45 42 26 52 0
-6 -2 -44 45 42 -26 -52 0
-6 -2 -44 45 -42 26 52 0
-6 -2 -44 45 -42 -26 -52 0
-6 -2 -44 -45 42 26 52 0
-6 -2 -44 -45 42 -26 -52 0
-6 -2 -44 -45 -42 26 52 0
-6 -2 -44 -45 -42 -26 -52 0
-6 -2 44 45 43 27 -53 0
-6 -2 44 45 43 -27 -53 0
-6 -2 44 45 -43 27 -53 0
-6 -2 44 45 -43 -27 53 0
-6 -2 44 -45 43 27 -53 0
-6 -2 44 -45 43 -27 53 0
-6 -2 44 -45 -43 27 53 0
-6 -2 44 -45 -43 -27 53 0
-6 -2 -44 45 43 27 53 0
-6 -2 -44 45 43 -27 -53 0
-6 -2 -44 45 -43 27 53 0
-6 -2 -44 45 -43 -27 -53 0
-6 -2 -44 -45 43 27 53 0
-6 -2 -44 -45 43 -27 -53 0
-6 -2 -44 -45 -43 27 53 0
-6 -2 -44 -45 -43 -27 -53 0
-6 -3 44 45 36 28 -46 0
-6 -3 44 45 36 -28 -46 0
-6 -3 44 45 -36 28 -46 0
-6 -3 44 45 -36 -28 46 0
-6 -3 44 -45 36 28 -46 0
-6 -3 44 -45 36 -28 46 0
-6 -3 44 -45 -36 28 46 0
-6 -3 44 -45 -36 -28 46 0
-6 -3 -44 45 36 28 46 0
-6 -3 -44 45 36 -28 -46 0
-6 -3 -44 45 -36 28 46 0
-6 -3 -44 45 -36 -28 -46 0
-6 -3 -44 -45 36 28 46 0
-6 -3 -44 -45 36 -28 -46 0
-6 -3 -44 -45 -36 28 46 0
-6 -3 -44 -45 -36 -28 -46 0
-6 -3 44 45 37 29 -47 0
-6 -3 44 45 37 -29 -47 0
-6 -3 44 45 -37 29 -47 0
-6 -3 44 45 -37 -29 47 0
-6 -3 44 -45 37 29 -47 0
-6 -3 44 -45 37 -29 47 0
-6 -3 44 -45 -37 29 47 0
-6 -3 44 -45 -37 -29 47 0
-6 -3 -44 45 37 29 47 0
-6 -3 -44 45 37 -29 -47 0
-6 -3 -44 45 -37 29 47 0
-6 -3 -44 45 -37 -29 -47 0
-6 -3 -44 -45 37 29 47 0
-6 -3 -44 -45 37 -29 -47 0
-6 -3 -44 -45 -37 29 47 0
-6 -3 -44 -45 -37 -29 -47 0
-6 -3 44 45 38 30 -48 0
-6 -3 44 45 38 -30 -48 0
-6 -3 44 45 -38 30 -48 0
-6 -3 44 45 -38 -30 48 0
-6 -3 44 -45 38 30 -48 0
-6 -3 44 -45 38 -30 48 0
-6 -3 44 -45 -38 30 48 0
-6 -3 44 -45 -38 -30 48 0
-6 -3 -44 45 38 30 48 0
-6 -3 -44 45 38 -30 -48 0
-6 -3 -44 45 -38 30 48 0
-6 -3 -44 45 -38 -30 -48 0
-6 -3 -44 -45 38 30 48 0
-6 -3 -44 -45 38 -30 -48 0
-6 -3 -44 -45 -38 30 48 0
-6 -3 -44 -45 -38 -30 -48 0
-6 -3 44 45 39 31 -49 0
-6 -3 44 45 39 -31 -49 0
-6 -3 44 45 -39 31 -49 0
-6 -3 44 45 -39 -31 49 0
-6 -3 44 -45 39 31 -49 0
-6 -3 44 -45 39 -31 49 0
-6 -3 44 -45 -39 31 49 0
-6 -3 44 -45 -39 -31 49 0
-6 -3 -44 45 39 31 49 0
-6 -3 -44 45 39 -31 -49 0
-6 -3 -44 45 -39 31 49 0
-6 -3 -44 45 -39 -31 -49 0
-6 -3 -44 -45 39 31 49 0
-6 -3 -44 -45 39 -31 -49 0
-6 -3 -44 -45 -39 31 49 0
-6 -3 -44 -45 -39 -31 -49 0
-6 -3 44 45 40 32 -50 0
-6 -3 44 45 40 -32 -50 0
-6 -3 44 45 -40 32 -50 0
-6 -3 44 45 -40 -32 50 0
-6 -3 44 -45 40 32 -50 0
-6 -3 44 -45 40 -32 50 0
-6 -3 44 -45 -40 32 50 0
-6 -3 44 -45 -40 -32 50 0
-6 -3 -44 45 40 32 50 0
-6 -3 -44 45 40 -32 -50 0
-6 -3 -44 45 -40 32 50 0
-6 -3 -44 45 -40 -32 -50 0
-6 -3 -44 -45 40 32 50 0
-6 -3 -44 -45 40 -32 -50 0
-6 -3 -44 -45 -40 32 50 0
-6 -3 -44 -45 -40 -32 -50 0
-6 -3 44 45 41 33 -51 0
-6 -3 44 45 41 -33 -51 0
-6 -3 44 45 -41 33 -51 0
-6 -3 44 45 -41 -33 51 0
-6 -3 44 -45 41 33 -51 0
-6 -3 44 -45 41 -33 51 0
-6 -3 44 -45 -41 33 51 0
-6 -3 44 -45 -41 -33 51 0
-6 -3 -44 45 41 33 51 0
-6 -3 -44 45 41 -33 -51 0
-6 -3 -44 45 -41 33 51 0
-6 -3 -44 45 -41 -33 -51 0
-6 -3 -44 -45 41 33 51 0
-6 -3 -44 -45 41 -33 -51 0
-6 -3 -44 -45 -41 33 51 0
-6 -3 -44 -45 -41 -33 -51 0
-6 -3 44 45 42 34 -52 0
-6 -3 44 45 42 -34 -52 0
-6 -3 44 45 -42 34 -52 0
-6 -3 44 45 -42 -34 52 0
-6 -3 44 -45 42 34 -52 0
-6 -3 44 -45 42 -34 52 0
-6 -3 44 -45 -42 34 52 0
-6 -3 44 -45 -42 -34 52 0
-6 -3 -44 45 42 34 52 0
-6 -3 -44 45 42 -34 -52 0
-6 -3 -44 45 -42 34 52 0
-6 -3 -44 45 -42 -34 -52 0
-6 -3 -44 -45 42 34 52 0
-6 -3 -44 -45 42 -34 -52 0
-6 -3 -44 -45 -42 34 52 0
-6 -3 -44 -45 -42 -34 -52 0
-6 -3 44 45 43 35 -53 0
-6 -3 44 45 43 -35 -53 0
-6 -3 44 45 -43 35 -53 0
-6 -3 44 45 -43 -35 53 0
-6 -3 44 -45 43 35 -53 0
-6 -3 44 -45 43 -35 53 0
-6 -3 44 -45 -43 35 53 0
-6 -3 44 -45 -43 -35 53 0
-6 -3 -44 45 43 35 53 0
-6 -3 -44 45 43 -35 -53 0
-6 -3 -44 45 -43 35 53 0
-6 -3 -44 45 -43 -35 -53 0
-6 -3 -44 -45 43 35 53 0
-6 -3 -44 -45 43 -35 -53 0
-6 -3 -44 -45 -43 35 53 0
-6 -3 -44 -45 -43 -35 -53 0
-12 -8 54 55 28 20 -56 0
-12 -8 54 55 28 -20 -56 0
-12 -8 54 55 -28 20 -56 0
-12 -8 54 55 -28 -20 56 0
-12 -8 54 -55 28 20 -56 0
-12 -8 54 -55 28 -20 56 0
-12 -8 54 -55 -28 20 56 0
-12 -8 54 -55 -28 -20 56 0
-12 -8 -54 55 28 20 56 0
-12 -8 -54 55 28 -20 -56 0
-12 -8 -54 55 -28 20 56 0
-12 -8 -54 55 -28 -20 -56 0
-12 -8 -54 -55 28 20 56 0
-12 -8 -54 -55 28 -20 -56 0
-12 -8 -54 -55 -28 20 56 0
-12 -8 -54 -55 -28 -20 -56 0
-12 -8 54 55 29 21 -57 0
-12 -8 54 55 29 -21 -57 0
-12 -8 54 55 -29 21 -57 0
-12 -8 54 55 -29 -21 57 0
-12 -8 54 -55 29 21 -57 0
-12 -8 54 -55 29 -21 57 0
-12 -8 54 -55 -29 21 57 0
-12 -8 54 -55 -29 -21 57 0
-12 -8 -54 55 29 21 57 0
-12 -8 -54 55 29 -21 -57 0
-12 -8 -54 55 -29 21 57 0
-12 -8 -54 55 -29 -21 -57 0
-12 -8 -54 -55 29 21 57 0
-12 -8 -54 -55 29 -21 -57 0
-12 -8 -54 -55 -29 21 57 0
-12 -8 -54 -55 -29 -21 -57 0
-12 -8 54 55 30 22 -58 0
-12 -8 54 55 30 -22 -58 0
-12 -8 54 55 -30 22 -58 0
-12 -8 54 55 -30 -22 58 0
-12 -8 54 -55 30 22 -58 0
-12 -8 54 -55 30 -22 58 0
-12 -8 54 -55 -30 22 58 0
-12 -8 54 -55 -30 -22 58 0
-12 -8 -54 55 30 22 58 0
-12 -8 -54 55 30 -22 -58 0
-12 -8 -54 55 -30 22 58 0
-12 -8 -54 55 -30 -22 -58 0
-12 -8 -54 -55 30 22 58 0
-12 -8 -54 -55 30 -22 -58 0
-12 -8 -54 -55 -30 22 58 0
-12 -8 -54 -55 -30 -22 -58 0
-12 -8 54 55 31 23 -59 0
-12 -8 54 55 31 -23 -59 0
-12 -8 54 55 -31 23 -59 0
-12 -8 54 55 -31 -23 59 0
-12 -8 54 -55 31 23 -59 0
-12 -8 54 -55 31 -23 59 0
-12 -8 54 -55 -31 23 59 0
-12 -8 54 -55 -31 -23 59 0
-12 -8 -54 55 31 23 59 0
-12 -8 -54 55 31 -23 -59 0
-12 -8 -54 55 -31 23 59 0
-12 -8 -54 55 -31 -23 -59 0
-12 -8 -54 -55 31 23 59 0
-12 -8 -54 -55 31 -23 -59 0
-12 -8 -54 -55 -31 23 59 0
-12 -8 -54 -55 -31 -23 -59 0
-12 -8 54 55 32 24 -60 0
-12 -8 54 55 32 -24 -60 0
-12 -8 54 55 -32 24 -60 0
-12 -8 54 55 -32 -24 60 0
-12 -8 54 -55 32 24 -60 0
-12 -8 54 -55 32 -24 60 0
-12 -8 54 -55 -32 24 60 0
-12 -8 54 -55 -32 -24 60 0
-12 -8 -54 55 32 24 60 0
-12 -8 -54 55 32 -24 -60 0
-12 -8 -54 55 -32 24 60 0
-12 -8 -54 55 -32 -24 -60 0
-12 -8 -54 -55 32 24 60 0
-12 -8 -54 -55 32 -24 -60 0
-12 -8 -54 -55 -32 24 60 0
-12 -8 -54 -55 -32 -24 -60 0
-12 -8 54 55 33 25 -61 0
-12 -8 54 55 33 -25 -61 0
-12 -8 54 55 -33 25 -61 0
-12 -8 54 55 -33 -25 61 0
-12 -8 54 -55 33 25 -61 0
-12 -8 54 -55 33 -25 61 0
-12 -8 54 -55 -33 25 61 0
-12 -8 54 -55 -33 -25 61 0
-12 -8 -54 55 33 25 61 0
-12 -8 -54 55 33 -25 -61 0
-12 -8 -54 55 -33 25 61 0
-12 -8 -54 55 -33 -25 -61 0
-12 -8 -54 -55 33 25 61 0
-12 -8 -54 -55 33 -25 -61 0
-12 -8 -54 -55 -33 25 61 0
-12 -8 -54 -55 -33 -25 -61 0
-12 -8 54 55 34 26 -62 0
-12 -8 54 55 34 -26 -62 0
-12 -8 54 55 -34 26 -62 0
-12 -8 54 55 -34 -26 62 0
-12 -8 54 -55 34 26 -62 0
-12 -8 54 -55 34 -26 62 0
-12 -8 54 -55 -34 26 62 0
-12 -8 54 -55 -34 -26 62 0
-12 -8 -54 55 34 26 62 0
-12 -8 -54 55 34 -26 -62 0
-12 -8 -54 55 -34 26 62 0
-12 -8 -54 55 -34 -26 -62 0
-12 -8 -54 -55 34 26 62 0
-12 -8 -54 -55 34 -26 -62 0
-12 -8 -54 -55 -34 26 62 0
-12 -8 -54 -55 -34 -26 -62 0
-12 -8 54 55 35 27 -63 0
-12 -8 54 55 35 -27 -63 0
-12 -8 54 55 -35 27 -63 0
-12 -8 54 55 -35 -27 63 0
-12 -8 54 -55 35 27 -63 0
-12 -8 54 -55 35 -27 63 0
-12 -8 54 -55 -35 27 63 0
-12 -8 54 -55 -35 -27 63 0
-12 -8 -54 55 35 27 63 0
-12 -8 -54 55 35 -27 -63 0
-12 -8 -54 55 -35 27 63 0
-12 -8 -54 55 -35 -27 -63 0
-12 -8 -54 -55 35 27 63 0
-12 -8 -54 -55 35 -27 -63 0
-12 -8 -54 -55 -35 27 63 0
-12 -8 -54 -55 -35 -27 -63 0
-13 -8 54 55 36 20 -56 0
-13 -8 54 55 36 -20 -56 0
-13 -8 54 55 -36 20 -56 0
-13 -8 54 55 -36 -20 56 0
-13 -8 54 -55 36 20 -56 0
-13 -8 54 -55 36 -20 56 0
-13 -8 54 -55 -36 20 56 0
-13 -8 54 -55 -36 -20 56 0
-13 -8 -54 55 36 20 56 0
-13 -8 -54 55 36 -20 -56 0
-13 -8 -54 55 -36 20 56 0
-13 -8 -54 55 -36 -20 -56 0
-13 -8 -54 -55 36 20 56 0
-13 -8 -54 -55 36 -20 -56 0
-13 -8 -54 -55 -36 20 56 0
-13 -8 -54 -55 -36 -20 -56 0
-13 -8 54 55 37 21 -57 0
-13 -8 54 55 37 -21 -57 0
-13 -8 54 55 -37 21 -57 0
-13 -8 54 55 -37 -21 57 0
-13 -8 54 -55 37 21 -57 0
-13 -8 54 -55 37 -21 57 0
-13 -8 54 -55 -37 21 57 0
-13 -8 54 -55 -37 -21 57 0
-13 -8 -54 55 37 21 57 0
-13 -8 -54 55 37 -21 -57 0
-13 -8 -54 55 -37 21 57 0
-13 -8 -54 55 -37 -21 -57 0
-13 -8 -54 -55 37 21 57 0
-13 -8 -54 -55 37 -21 -57 0
-13 -8 -54 -55 -37 21 57 0
-13 -8 -54 -55 -37 -21 -57 0
-13 -8 54 55 38 22 -58 0
-13 -8 54 55 38 -22 -58 0
-13 -8 54 55 -38 22 -58 0
-13 -8 54 55 -38 -22 58 0
-13 -8 54 -55 38 22 -58 0
-13 -8 54 -55 38 -22 58 0
-13 -8 54 -55 -38 22 58 0
-13 -8 54 -55 -38 -22 58 0
-13 -8 -54 55 38 22 58 0
-13 -8 -54 55 38 -22 -58 0
-13 -8 -54 55 -38 22 58 0
-13 -8 -54 55 -38 -22 -58 0
-13 -8 -54 -55 38 22 58 0
-13 -8 -54 -55 38 -22 -58 0
-13 -8 -54 -55 -38 22 58 0
-13 -8 -54 -55 -38 -22 -58 0
-13 -8 54 55 39 23 -59 0
-13 -8 54 55 39 -23 -59 0
-13 -8 54 55 -39 23 -59 0
-13 -8 54 55 -39 -23 59 0
-13 -8 54 -55 39 23 -59 0
-13 -8 54 -55 39 -23 59 0
-13 -8 54 -55 -39 23 59 0
-13 -8 54 -55 -39 -23 59 0
-13 -8 -54 55 39 23 59 0
-13 -8 -54 55 39 -23 -59 0
-13 -8 -54 55 -39 23 59 0
-13 -8 -54 55 -39 -23 -59 0
-13 -8 -54 -55 39 23 59 0
-13 -8 -54 -55 39 -23 -59 0
-13 -8 -54 -55 -39 23 59 0
-13 -8 -54 -55 -39 -23 -59 0
-13 -8 54 55 40 24 -60 0
-13 -8 54 55 40 -24 -60 0
-13 -8 54 55 -40 24 -60 0
-13 -8 54 55 -40 -24 60 0
-13 -8 54 -55 40 24 -60 0
-13 -8 54 -55 40 -24 60 0
-13 -8 54 -55 -40 24 60 0
-13 -8 54 -55 -40 -24 60 0
-13 -8 -54 55 40 24 60 0
-13 -8 -54 55 40 -24 -60 0
-13 -8 -54 55 -40 24 60 0
-13 -8 -54 55 -40 -24 -60 0
-13 -8 -54 -55 40 24 60 0
-13 -8 -54 -55 40 -24 -60 0
-13 -8 -54 -55 -40 24 60 0
-13 -8 -54 -55 -40 -24 -60 0
-13 -8 54 55 41 25 -61 0
-13 -8 54 55 41 -25 -61 0
-13 -8 54 55 -41 25 -61 0
-13 -8 54 55 -41 -25 61 0
-13 -8 54 -55 41 25 -61 0
-13 -8 54 -55 41 -25 61 0
-13 -8 54 -55 -41 25 61 0
-13 -8 54 -55 -41 -25 61 0
-13 -8 -54 55 41 25 61 0
-13 -8 -54 55 41 -25 -61 0
-13 -8 -54 55 -41 25 61 0
-13 -8 -54 55 -41 -25 -61 0
-13 -8 -54 -55 41 25 61 0
-13 -8 -54 -55 41 -25 -61 0
-13 -8 -54 -55 -41 25 61 0
-13 -8 -54 -55 -41 -25 -61 0
-13 -8 54 55 42 26 -62 0
-13 -8 54 55 42 -26 -62 0
-13 -8 54 55 -42 26 -62 0
-13 -8 54 55 -42 -26 62 0
-13 -8 54 -55 42 26 -62 0
-13 -8 54 -55 42 -26 62 0
-13 -8 54 -55 -42 26 62 0
-13 -8 54 -55 -42 -26 62 0
-13 -8 -54 55 42 26 62 0
-13 -8 -54 55 42 -26 -62 0
-13 -8 -54 55 -42 26 62 0
-13 -8 -54 55 -42 -26 -62 0
-13 -8 -54 -55 42 26 62 0
-13 -8 -54 -55 42 -26 -62 0
-13 -8 -54 -55 -42 26 62 0
-13 -8 -54 -55 -42 -26 -62 0
-13 -8 54 55 43 27 -63 0
-13 -8 54 55 43 -27 -63 0
-13 -8 54 55 -43 27 -63 0
-13 -8 54 55 -43 -27 63 0
-13 -8 54 -55 43 27 -63 0
-13 -8 54 -55 43 -27 63 0
-13 -8 54 -55 -43 27 63 0
-13 -8 54 -55 -43 -27 63 0
-13 -8 -54 55 43 27 63 0
-13 -8 -54 55 43 -27 -63 0
-13 -8 -54 55 -43 27 63 0
-13 -8 -54 55 -43 -27 -63 0
-13 -8 -54 -55 43 27 63 0
-13 -8 -54 -55 43 -27 -63 0
-13 -8 -54 -55 -43 27 63 0
-13 -8 -54 -55 -43 -27 -63 0
-13 -9 54 55 36 28 -56 0
-13 -9 54 55 36 -28 -56 0
-13 -9 54 55 -36 28 -56 0
-13 -9 54 55 -36 -28 56 0
-13 -9 54 -55 36 28 -56 0
-13 -9 54 -55 36 -28 56 0
-13 -9 54 -55 -36 28 56 0
-13 -9 54 -55 -36 -28 56 0
-13 -9 -54 55 36 28 56 0
-13 -9 -54 55 36 -28 -56 0
-13 -9 -54 55 -36 28 56 0
-13 -9 -54 55 -36 -28 -56 0
-13 -9 -54 -55 36 28 56 0
-13 -9 -54 -55 36 -28 -56 0
-13 -9 -54 -55 -36 28 56 0
-13 -9 -54 -55 -36 -28 -56 0
-13 -9 54 55 37 29 -57 0
-13 -9 54 55 37 -29 -57 0
-13 -9 54 55 -37 29 -57 0
-13 -9 54 55 -37 -29 57 0
-13 -9 54 -55 37 29 -57 0
-13 -9 54 -55 37 -29 57 0
-13 -9 54 -55 -37 29 57 0
-13 -9 54 -55 -37 -29 57 0
-13 -9 -54 55 37 29 57 0
-13 -9 -54 55 37 -29 -57 0
-13 -9 -54 55 -37 29 57 0
-13 -9 -54 55 -37 -29 -57 0
-13 -9 -54 -55 37 29 57 0
-13 -9 -54 -55 37 -29 -57 0
-13 -9 -54 -55 -37 29 57 0
-13 -9 -54 -55 -37 -29 -57 0
-13 -9 54 55 38 30 -58 0
-13 -9 54 55 38 -30 -58 0
-13 -9 54 55 -38 30 -58 0
-13 -9 54 55 -38 -30 58 0
-13 -9 54 -55 38 30 -58 0
-13 -9 54 -55 38 -30 58 0
-13 -9 54 -55 -38 30 58 0
-13 -9 54 -55 -38 -30 58 0
-13 -9 -54 55 38 30 58 0
-13 -9 -54 55 38 -30 -58 0
-13 -9 -54 55 -38 30 58 0
-13 -9 -54 55 -38 -30 -58 0
-13 -9 -54 -55 38 30 58 0
-13 -9 -54 -55 38 -30 -58 0
-13 -9 -54 -55 -38 30 58 0
-13 -9 -54 -55 -38 -30 -58 0
-13 -9 54 55 39 31 -59 0
-13 -9 54 55 39 -31 -59 0
-13 -9 54 55 -39 31 -59 0
-13 -9 54 55 -39 -31 59 0
-13 -9 54 -55 39 31 -59 0
-13 -9 54 -55 39 -31 59 0
-13 -9 54 -55 -39 31 59 0
-13 -9 54 -55 -39 -31 59 0
-13 -9 -54 55 39 31 59 0
-13 -9 -54 55 39 -31 -59 0
-13 -9 -54 55 -39 31 59 0
-13 -9 -54 55 -39 -31 -59 0
-13 -9 -54 -55 39 31 59 0
-13 -9 -54 -55 39 -31 -59 0
-13 -9 -54 -55 -39 31 59 0
-13 -9 -54 -55 -39 -31 -59 0
-13 -9 54 55 40 32 -60 0
-13 -9 54 55 40 -32 -60 0
-13 -9 54 55 -40 32 -60 0
-13 -9 54 55 -40 -32 60 0
-13 -9 54 -55 40 32 -60 0
-13 -9 54 -55 40 -32 60 0
-13 -9 54 -55 -40 32 60 0
-13 -9 54 -55 -40 -32 60 0
-13 -9 -54 55 40 32 60 0
-13 -9 -54 55 40 -32 -60 0
-13 -9 -54 55 -40 32 60 0
-13 -9 -54 55 -40 -32 -60 0
-13 -9 -54 -55 40 32 60 0
-13 -9 -54 -55 40 -32 -60 0
-13 -9 -54 -55 -40 32 60 0
-13 -9 -54 -55 -40 -32 -60 0
-13 -9 54 55 41 33 -61 0
-13 -9 54 55 41 -33 -61 0
-13 -9 54 55 -41 33 -61 0
-13 -9 54 55 -41 -33 61 0
-13 -9 54 -55 41 33 -61 0
-13 -9 54 -55 41 -33 61 0
-13 -9 54 -55 -41 33 61 0
-13 -9 54 -55 -41 -33 61 0
-13 -9 -54 55 41 33 61 0
-13 -9 -54 55 41 -33 -61 0
-13 -9 -54 55 -41 33 61 0
-13 -9 -54 55 -41 -33 -61 0
-13 -9 -54 -55 41 33 61 0
-13 -9 -54 -55 41 -33 -61 0
-13 -9 -54 -55 -41 33 61 0
-13 -9 -54 -55 -41 -33 -61 0
-13 -9 54 55 42 34 -62 0
-13 -9 54 55 42 -34 -62 0
-13 -9 54 55 -42 34 -62 0
-13 -9 54 55 -42 -34 62 0
-13 -9 54 -55 42 34 -62 0
-13 -9 54 -55 42 -34 62 0
-13 -9 54 -55 -42 34 62 0
-13 -9 54 -55 -42 -34 62 0
-13 -9 -54 55 42 34 62 0
-13 -9 -54 55 42 -34 -62 0
-13 -9 -54 55 -42 34 62 0
-13 -9 -54 55 -42 -34 -62 0
-13 -9 -54 -55 42 34 62 0
-13 -9 -54 -55 42 -34 -62 0
-13 -9 -54 -55 -42 34 62 0
-13 -9 -54 -55 -42 -34 -62 0
-13 -9 54 55 43 35 -63 0
-13 -9 54 55 43 -35 -63 0
-13 -9 54 55 -43 35 -63 0
-13 -9 54 55 -43 -35 63 0
-13 -9 54 -55 43 35 -63 0
-13 -9 54 -55 43 -35 63 0
-13 -9 54 -55 -43 35 63 0
-13 -9 54 -55 -43 -35 63 0
-13 -9 -54 55 43 35 63 0
-13 -9 -54 55 43 -35 -63 0
-13 -9 -54 55 -43 35 63 0
-13 -9 -54 55 -43 -35 -63 0
-13 -9 -54 -55 43 35 63 0
-13 -9 -54 -55 43 -35 -63 0
-13 -9 -54 -55 -43 35 63 0
-13 -9 -54 -55 -43 -35 -63 0
-14 -8 54 55 46 20 -56 0
-14 -8 54 55 46 -20 -56 0
-14 -8 54 55 -46 20 -56 0
-14 -8 54 55 -46 -20 56 0
-14 -8 54 -55 46 20 -56 0
-14 -8 54 -55 46 -20 56 0
-14 -8 54 -55 -46 20 56 0
-14 -8 54 -55 -46 -20 56 0
-14 -8 -54 55 46 20 56 0
-14 -8 -54 55 46 -20 -56 0
-14 -8 -54 55 -46 20 56 0
-14 -8 -54 55 -46 -20 -56 0
-14 -8 -54 -55 46 20 56 0
-14 -8 -54 -55 46 -20 -56 0
-14 -8 -54 -55 -46 20 56 0
-14 -8 -54 -55 -46 -20 -56 0
-14 -8 54 55 47 21 -57 0
-14 -8 54 55 47 -21 -57 0
-14 -8 54 55 -47 21 -57 0
-14 -8 54 55 -47 -21 57 0
-14 -8 54 -55 47 21 -57 0
-14 -8 54 -55 47 -21 57 0
-14 -8 54 -55 -47 21 57 0
-14 -8 54 -55 -47 -21 57 0
-14 -8 -54 55 47 21 57 0
-14 -8 -54 55 47 -21 -57 0
-14 -8 -54 55 -47 21 57 0
-14 -8 -54 55 -47 -21 -57 0
-14 -8 -54 -55 47 21 57 0
-14 -8 -54 -55 47 -21 -57 0
-14 -8 -54 -55 -47 21 57 0
-14 -8 -54 -55 -47 -21 -57 0
-14 -8 54 55 48 22 -58 0
-14 -8 54 55 48 -22 -58 0
-14 -8 54 55 -48 22 -58 0
-14 -8 54 55 -48 -22 58 0
-14 -8 54 -55 48 22 -58 0
-14 -8 54 -55 48 -22 58 0
-14 -8 54 -55 -48 22 58 0
-14 -8 54 -55 -48 -22 58 0
-14 -8 -54 55 48 22 58 0
-14 -8 -54 55 48 -22 -58 0
-14 -8 -54 55 -48 22 58 0
-14 -8 -54 55 -48 -22 -58 0
-14 -8 -54 -55 48 22 58 0
-14 -8 -54 -55 48 -22 -58 0
-14 -8 -54 -55 -48 22 58 0
-14 -8 -54 -55 -48 -22 -58 0
-14 -8 54 55 49 23 -59 0
-14 -8 54 55 49 -23 -59 0
-14 -8 54 55 -49 23 -59 0
-14 -8 54 55 -49 -23 59 0
-14 -8 54 -55 49 23 -59 0
-14 -8 54 -55 49 -23 59 0
-14 -8 54 -55 -49 23 59 0
-14 -8 54 -55 -49 -23 59 0
-14 -8 -54 55 49 23 59 0
-14 -8 -54 55 49 -23 -59 0
-14 -8 -54 55 -49 23 59 0
-14 -8 -54 55 -49 -23 -59 0
-14 -8 -54 -55 49 23 59 0
-14 -8 -54 -55 49 -23 -59 0
-14 -8 -54 -55 -49 23 59 0
-14 -8 -54 -55 -49 -23 -59 0
-14 -8 54 55 50 24 -60 0
-14 -8 54 55 50 -24 -60 0
-14 -8 54 55 -50 24 -60 0
-14 -8 54 55 -50 -24 60 0
-14 -8 54 -55 50 24 -60 0
-14 -8 54 -55 50 -24 60 0
-14 -8 54 -55 -50 24 60 0
-14 -8 54 -55 -50 -24 60 0
-14 -8 -54 55 50 24 60 0
-14 -8 -54 55 50 -24 -60 0
-14 -8 -54 55 -50 24 60 0
-14 -8 -54 55 -50 -24 -60 0
-14 -8 -54 -55 50 24 60 0
-14 -8 -54 -55 50 -24 -60 0
-14 -8 -54 -55 -50 24 60 0
-14 -8 -54 -55 -50 -24 -60 0
-14 -8 54 55 51 25 -61 0
-14 -8 54 55 51 -25 -61 0
-14 -8 54 55 -51 25 -61 0
-14 -8 54 55 -51 -25 61 0
-14 -8 54 -55 51 25 -61 0
-14 -8 54 -55 51 -25 61 0
-14 -8 54 -55 -51 25 61 0
-14 -8 54 -55 -51 -25 61 0
-14 -8 -54 55 51 25 61 0
-14 -8 -54 55 51 -25 -61 0
-14 -8 -54 55 -51 25 61 0
-14 -8 -54 55 -51 -25 -61 0
-14 -8 -54 -55 51 25 61 0
-14 -8 -54 -55 51 -25 -61 0
-14 -8 -54 -55 -51 25 61 0
-14 -8 -54 -55 -51 -25 -61 0
-14 -8 54 55 52 26 -62 0
-14 -8 54 55 52 -26 -62 0
-14 -8 54 55 -52 26 -62 0
-14 -8 54 55 -52 -26 62 0
-14 -8 54 -55 52 26 -62 0
-14 -8 54 -55 52 -26 62 0
-14 -8 54 -55 -52 26 62 0
-14 -8 54 -55 -52 -26 62 0
-14 -8 -54 55 52 26 62 0
-14 -8 -54 55 52 -26 -62 0
-14 -8 -54 55 -52 26 62 0
-14 -8 -54 55 -52 -26 -62 0
-14 -8 -54 -55 52 26 62 0
-14 -8 -54 -55 52 -26 -62 0
-14 -8 -54 -55 -52 26 62 0
-14 -8 -54 -55 -52 -26 -62 0
-14 -8 54 55 53 27 -63 0
-14 -8 54 55 53 -27 -63 0
-14 -8 54 55 -53 27 -63 0
-14 -8 54 55 -53 -27 63 0
-14 -8 54 -55 53 27 -63 0
-14 -8 54 -55 53 -27 63 0
-14 -8 54 -55 -53 27 63 0
-14 -8 54 -55 -53 -27 63 0
-14 -8 -54 55 53 27 63 0
-14 -8 -54 55 53 -27 -63 0
-14 -8 -54 55 -53 27 63 0
-14 -8 -54 55 -53 -27 -63 0
-14 -8 -54 -55 53 27 63 0
-14 -8 -54 -55 53 -27 -63 0
-14 -8 -54 -55 -53 27 63 0
-14 -8 -54 -55 -53 -27 -63 0
-14 -9 54 55 46 28 -56 0
-14 -9 54 55 46 -28 -56 0
-14 -9 54 55 -46 28 -56 0
-14 -9 54 55 -46 -28 56 0
-14 -9 54 -55 46 28 -56 0
-14 -9 54 -55 46 -28 56 0
-14 -9 54 -55 -46 28 56 0
-14 -9 54 -55 -46 -28 56 0
-14 -9 -54 55 46 28 56 0
-14 -9 -54 55 46 -28 -56 0
-14 -9 -54 55 -46 28 56 0
-14 -9 -54 55 -46 -28 -56 0
-14 -9 -54 -55 46 28 56 0
-14 -9 -54 -55 46 -28 -56 0
-14 -9 -54 -55 -46 28 56 0
-14 -9 -54 -55 -46 -28 -56 0
-14 -9 54 55 47 29 -57 0
-14 -9 54 55 47 -29 -57 0
-14 -9 54 55 -47 29 -57 0
-14 -9 54 55 -47 -29 57 0
-14 -9 54 -55 47 29 -57 0
-14 -9 54 -55 47 -29 57 0
-14 -9 54 -55 -47 29 57 0
-14 -9 54 -55 -47 -29 57 0
-14 -9 -54 55 47 29 57 0
-14 -9 -54 55 47 -29 -57 0
-14 -9 -54 55 -47 29 57 0
-14 -9 -54 55 -47 -29 -57 0
-14 -9 -54 -55 47 29 57 0
-14 -9 -54 -55 47 -29 -57 0
-14 -9 -54 -55 -47 29 57 0
-14 -9 -54 -55 -47 -29 -57 0
-14 -9 54 55 48 30 -58 0
-14 -9 54 55 48 -30 -58 0
-14 -9 54 55 -48 30 -58 0
-14 -9 54 55 -48 -30 58 0
-14 -9 54 -55 48 30 -58 0
-14 -9 54 -55 48 -30 58 0
-14 -9 54 -55 -48 30 58 0
-14 -9 54 -55 -48 -30 58 0
-14 -9 -54 55 48 30 58 0
-14 -9 -54 55 48 -30 -58 0
-14 -9 -54 55 -48 30 58 0
-14 -9 -54 55 -48 -30 -58 0
-14 -9 -54 -55 48 30 58 0
-14 -9 -54 -55 48 -30 -58 0
-14 -9 -54 -55 -48 30 58 0
-14 -9 -54 -55 -48 -30 -58 0
-14 -9 54 55 49 31 -59 0
-14 -9 54 55 49 -31 -59 0
-14 -9 54 55 -49 31 -59 0
-14 -9 54 55 -49 -31 59 0
-14 -9 54 -55 49 31 -59 0
-14 -9 54 -55 49 -31 59 0
-14 -9 54 -55 -49 31 59 0
-14 -9 54 -55 -49 -31 59 0
-14 -9 -54 55 49 31 59 0
-14 -9 -54 55 49 -31 -59 0
-14 -9 -54 55 -49 31 59 0
-14 -9 -54 55 -49 -31 -59 0
-14 -9 -54 -55 49 31 59 0
-14 -9 -54 -55 49 -31 -59 0
-14 -9 -54 -55 -49 31 59 0
-14 -9 -54 -55 -49 -31 -59 0
-14 -9 54 55 50 32 -60 0
-14 -9 54 55 50 -32 -60 0
-14 -9 54 55 -50 32 -60 0
-14 -9 54 55 -50 -32 60 0
-14 -9 54 -55 50 32 -60 0
-14 -9 54 -55 50 -32 60 0
-14 -9 54 -55 -50 32 60 0
-14 -9 54 -55 -50 -32 60 0
-14 -9 -54 55 50 32 60 0
-14 -9 -54 55 50 -32 -60 0
-14 -9 -54 55 -50 32 60 0
-14 -9 -54 55 -50 -32 -60 0
-14 -9 -54 -55 50 32 60 0
-14 -9 -54 -55 50 -32 -60 0
-14 -9 -54 -55 -50 32 60 0
-14 -9 -54 -55 -50 -32 -60 0
-14 -9 54 55 51 33 -61 0
-14 -9 54 55 51 -33 -61 0
-14 -9 54 55 -51 33 -61 0
-14 -9 54 55 -51 -33 61 0
-14 -9 54 -55 51 33 -61 0
-14 -9 54 -55 51 -33 61 0
-14 -9 54 -55 -51 33 61 0
-14 -9 54 -55 -51 -33 61 0
-14 -9 -54 55 51 33 61 0
-14 -9 -54 55 51 -33 -61 0
-14 -9 -54 55 -51 33 61 0
-14 -9 -54 55 -51 -33 -61 0
-14 -9 -54 -55 51 33 61 0
-14 -9 -54 -55 51 -33 -61 0
-14 -9 -54 -55 -51 33 61 0
-14 -9 -54 -55 -51 -33 -61 0
-14 -9 54 55 52 34 -62 0
-14 -9 54 55 52 -34 -62 0
-14 -9 54 55 -52 34 -62 0
-14 -9 54 55 -52 -34 62 0
-14 -9 54 -55 52 34 -62 0
-14 -9 54 -55 52 -34 62 0
-14 -9 54 -55 -52 34 62 0
-14 -9 54 -55 -52 -34 62 0
-14 -9 -54 55 52 34 62 0
-14 -9 -54 55 52 -34 -62 0
-14 -9 -54 55 -52 34 62 0
-14 -9 -54 55 -52 -34 -62 0
-14 -9 -54 -55 52 34 62 0
-14 -9 -54 -55 52 -34 -62 0
-14 -9 -54 -55 -52 34 62 0
-14 -9 -54 -55 -52 -34 -62 0
-14 -9 54 55 53 35 -63 0
-14 -9 54 55 53 -35 -63 0
-14 -9 54 55 -53 35 -63 0
-14 -9 54 55 -53 -35 63 0
-14 -9 54 -55 53 35 -63 0
-14 -9 54 -55 53 -35 63 0
-14 -9 54 -55 -53 35 63 0
-14 -9 54 -55 -53 -35 63 0
-14 -9 -54 55 53 35 63 0
-14 -9 -54 55 53 -35 -63 0
-14 -9 -54 55 -53 35 63 0
-14 -9 -54 55 -53 -35 -63 0
-14 -9 -54 -55 53 35 63 0
-14 -9 -54 -55 53 -35 -63 0
-14 -9 -54 -55 -53 35 63 0
-14 -9 -54 -55 -53 -35 -63 0
-14 -10 54 55 46 36 -56 0
-14 -10 54 55 46 -36 -56 0
-14 -10 54 55 -46 36 -56 0
-14 -10 54 55 -46 -36 56 0
-14 -10 54 -55 46 36 -56 0
-14 -10 54 -55 46 -36 56 0
-14 -10 54 -55 -46 36 56 0
-14 -10 54 -55 -46 -36 56 0
-14 -10 -54 55 46 36 56 0
-14 -10 -54 55 46 -36 -56 0
-14 -10 -54 55 -46 36 56 0
-14 -10 -54 55 -46 -36 -56 0
-14 -10 -54 -55 46 36 56 0
-14 -10 -54 -55 46 -36 -56 0
-14 -10 -54 -55 -46 36 56 0
-14 -10 -54 -55 -46 -36 -56 0
-14 -10 54 55 47 37 -57 0
-14 -10 54 55 47 -37 -57 0
-14 -10 54 55 -47 37 -57 0
-14 -10 54 55 -47 -37 57 0
-14 -10 54 -55 47 37 -57 0
-14 -10 54 -55 47 -37 57 0
-14 -10 54 -55 -47 37 57 0
-14 -10 54 -55 -47 -37 57 0
-14 -10 -54 55 47 37 57 0
-14 -10 -54 55 47 -37 -57 0
-14 -10 -54 55 -47 37 57 0
-14 -10 -54 55 -47 -37 -57 0
-14 -10 -54 -55 47 37 57 0
-14 -10 -54 -55 47 -37 -57 0
-14 -10 -54 -55 -47 37 57 0
-14 -10 -54 -55 -47 -37 -57 0
-14 -10 54 55 48 38 -58 0
-14 -10 54 55 48 -38 -58 0
-14 -10 54 55 -48 38 -58 0
-14 -10 54 55 -48 -38 58 0
-14 -10 54 -55 48 38 -58 0
-14 -10 54 -55 48 -38 58 0
-14 -10 54 -55 -48 38 58 0
-14 -10 54 -55 -48 -38 58 0
-14 -10 -54 55 48 38 58 0
-14 -10 -54 55 48 -38 -58 0
-14 -10 -54 55 -48 38 58 0
-14 -10 -54 55 -48 -38 -58 0
-14 -10 -54 -55 48 38 58 0
-14 -10 -54 -55 48 -38 -58 0
-14 -10 -54 -55 -48 38 58 0
-14 -10 -54 -55 -48 -38 -58 0
-14 -10 54 55 49 39 -59 0
-14 -10 54 55 49 -39 -59 0
-14 -10 54 55 -49 39 -59 0
-14 -10 54 55 -49 -39 59 0
-14 -10 54 -55 49 39 -59 0
-14 -10 54 -55 49 -39 59 0
-14 -10 54 -55 -49 39 59 0
-14 -10 54 -55 -49 -39 59 0
-14 -10 -54 55 49 39 59 0
-14 -10 -54 55 49 -39 -59 0
-14 -10 -54 55 -49 39 59 0
-14 -10 -54 55 -49 -39 -59 0
-14 -10 -54 -55 49 39 59 0
-14 -10 -54 -55 49 -39 -59 0
-14 -10 -54 -55 -49 39 59 0
-14 -10 -54 -55 -49 -39 -59 0
-14 -10 54 55 50 40 -60 0
-14 -10 54 55 50 -40 -60 0
-14 -10 54 55 -50 40 -60 0
-14 -10 54 55 -50 -40 60 0
-14 -10 54 -55 50 40 -60 0
-14 -10 54 -55 50 -40 60 0
-14 -10 54 -55 -50 40 60 0
-14 -10 54 -55 -50 -40 60 0
-14 -10 -54 55 50 40 60 0
-14 -10 -54 55 50 -40 -60 0
-14 -10 -54 55 -50 40 60 0
-14 -10 -54 55 -50 -40 -60 0
-14 -10 -54 -55 50 40 60 0
-14 -10 -54 -55 50 -40 -60 0
-14 -10 -54 -55 -50 40 60 0
-14 -10 -54 -55 -50 -40 -60 0
-14 -10 54 55 51 41 -61 0
-14 -10 54 55 51 -41 -61 0
-14 -10 54 55 -51 41 -61 0
-14 -10 54 55 -51 -41 61 0
-14 -10 54 -55 51 41 -61 0
-14 -10 54 -55 51 -41 61 0
-14 -10 54 -55 -51 41 61 0
-14 -10 54 -55 -51 -41 61 0
-14 -10 -54 55 51 41 61 0
-14 -10 -54 55 51 -41 -61 0
-14 -10 -54 55 -51 41 61 0
-14 -10 -54 55 -51 -41 -61 0
-14 -10 -54 -55 51 41 61 0
-14 -10 -54 -55 51 -41 -61 0
-14 -10 -54 -55 -51 41 61 0
-14 -10 -54 -55 -51 -41 -61 0
-14 -10 54 55 52 42 -62 0
-14 -10 54 55 52 -42 -62 0
-14 -10 54 55 -52 42 -62 0
-14 -10 54 55 -52 -42 62 0
-14 -10 54 -55 52 42 -62 0
-14 -10 54 -55 52 -42 62 0
-14 -10 54 -55 -52 42 62 0
-14 -10 54 -55 -52 -42 62 0
-14 -10 -54 55 52 42 62 0
-14 -10 -54 55 52 -42 -62 0
-14 -10 -54 55 -52 42 62 0
-14 -10 -54 55 -52 -42 -62 0
-14 -10 -54 -55 52 42 62 0
-14 -10 -54 -55 52 -42 -62 0
-14 -10 -54 -55 -52 42 62 0
-14 -10 -54 -55 -52 -42 -62 0
-14 -10 54 55 53 43 -63 0
-14 -10 54 55 53 -43 -63 0
-14 -10 54 55 -53 43 -63 0
-14 -10 54 55 -53 -43 63 0
-14 -10 54 -55 53 43 -63 0
-14 -10 54 -55 53 -43 63 0
-14 -10 54 -55 -53 43 63 0
-14 -10 54 -55 -53 -43 63 0
-14 -10 -54 55 53 43 63 0
-14 -10 -54 55 53 -43 -63 0
-14 -10 -54 55 -53 43 63 0
-14 -10 -54 55 -53 -43 -63 0
-14 -10 -54 -55 53 43 63 0
-14 -10 -54 -55 53 -43 -63 0
-14 -10 -54 -55 -53 43 63 0
-14 -10 -54 -55 -53 -43 -63 0
c outputs match truth table
-16 -20 0
-15 -28 0
-17 -36 0
-18 -46 0
-19 -56 0
-16 -21 0
-15 -29 0
-17 -37 0
-18 -47 0
-19 -57 0
-16 -22 0
-15 -30 0
-17 -38 0
-18 -48 0
-19 -58 0
-16 -23 0
-15 -31 0
-17 -39 0
-18 -49 0
-19 -59 0
-16 -24 0
-15 -32 0
-17 -40 0
-18 -50 0
-19 -60 0
-16 -25 0
-15 -33 0
-17 -41 0
-18 -51 0
-19 -61 0
-16 -26 0
-15 -34 0
-17 -42 0
-18 -52 0
-19 -62 0
-16 27 0
-15 35 0
-17 43 0
-18 53 0
-19 63 0
c variable names:
c c_3_0_0 1
c c_3_1_0 2
c c_3_1_1 3
c c_3_1_2 4
c c_3_0_1 5
c c_3_0_2 6
c c_4_0_0 7
c c_4_1_0 8
c c_4_1_1 9
c c_4_1_2 10
c c_4_1_3 11
c c_4_0_1 12
c c_4_0_2 13
c c_4_0_3 14
c o_1_0 15
c o_0_0 16
c o_2_0 17
c o_3_0 18
c o_4_0 19
c v_0_0 20
c v_0_1 21
c v_0_2 22
c v_0_3 23
c v_0_4 24
c v_0_5 25
c v_0_6 26
c v_0_7 27
c v_1_0 28
c v_1_1 29
c v_1_2 30
c v_1_3 31
c v_1_4 32
c v_1_5 33
c v_1_6 34
c v_1_7 35
c v_2_0 36
c v_2_1 37
c v_2_2 38
c v_2_3 39
c v_2_4 40
c v_2_5 41
c v_2_6 42
c v_2_7 43
c t_3_0 44
c t_3_1 45
c v_3_0 46
c v_3_1 47
c v_3_2 48
c v_3_3 49
c v_3_4 50
c v_3_5 51
c v_3_6 52
c v_3_7 53
c t_4_0 54
c t_4_1 55
c v_4_0 56
c v_4_1 57
c v_4_2 58
c v_4_3 59
c v_4_4 60
c v_4_5 61
c v_4_6 62
c v_4_7 63
